NAME : XML100_2373_13
DIMENSION : 101
NB_CLUSTERS : 7
CLUSTERING_ALG : KMeans
CLUSTERING_PARAMS : k(6)
CLUSTERS
1 0
2 1 2 4 5 6 15 18 24 29 33 35 37 38 39 46 49 52 54 61 62 64 69 73 76 84 85 88 89 91 99
3 10 12 14 17 20 21 31 40 44 47 50 53 65 66 67 70 71 75 82 83
4 9 16 26 43 45 57 63 79 87 92 93
5 3 22 25 30 32 36 55 56 74 80 90
6 13 19 27 34 42 48 51 59 78 95 96 100
7 7 8 11 23 28 41 58 60 68 72 77 81 86 94 97 98
EOF